(set-logic QF_S)
(declare-fun var0 () String)
(declare-fun var1 () String)
(declare-fun var2 () Bool)
(declare-fun var3 () String)
(declare-fun var4 () String)
(declare-fun var5 () Int)
(declare-fun var6 () Int)
(assert (<= (str.to.int var0) (str.to.int (str.at var1 111))))
(assert (not var2))
(assert (str.contains var3 var4))
(assert (str.in.re (str.substr var0 var5 var6) (re.+ re.allchar)))
(check-sat)